# Solution for model r5_t27_m6_6
# Finished Task: 25 / 27
# Makespan: 587.0, Total Distance: 1154.0, Total Time: 0.3171
# R O S F
0 0 14 0.0 0.0
1 1 29 0.0 0.0
2 2 8 0.0 0.0
3 3 21 0.0 0.0
4 4 13 0.0 0.0
5 2 -1 567.0 587.0
6 0 19 431.0 454.0
7 4 -1 435.0 464.0
8 2 28 56.0 88.0
9 1 11 390.0 411.0
10 0 23 330.0 365.0
11 1 22 439.0 465.0
12 3 17 403.0 435.0
13 4 20 213.0 245.0
14 0 10 88.0 122.0
15 1 9 313.0 349.0
16 2 24 301.0 339.0
17 3 18 491.0 513.0
18 3 -1 534.0 555.0
19 0 -1 501.0 523.0
20 4 7 265.0 293.0
21 3 31 139.0 164.0
22 1 -1 545.0 570.0
23 0 6 386.0 418.0
24 2 30 380.0 412.0
25 2 5 467.0 501.0
26 -1 -1 -1.0 -1.0
27 -1 -1 -1.0 -1.0
28 2 16 265.0 289.0
29 1 15 203.0 223.0
30 2 25 429.0 458.0
31 3 12 364.0 384.0
